HFSDDW
15	6	3
0	22	1	34	2	35
0	64	1	37	2	24
0	7	1	92	2	61
0	8	1	65	2	39
0	99	1	95	2	98
0	51	1	85	2	64
0	20	1	59	2	41
0	64	1	3	2	7
0	18	1	44	2	31
0	75	1	16	2	90
0	8	1	38	2	17
0	88	1	67	2	67
0	64	1	22	2	27
0	91	1	16	2	95
0	94	1	17	2	53
LBCmax: 434
RELDUE
-1	255	9	3
-1	36	7	7
-1	71	1	3
-1	45	2	1
-1	277	3	3
-1	25	8	6
-1	28	4	3
-1	145	4	5
-1	25	7	8
-1	256	5	5
-1	209	3	1
-1	93	5	4
-1	79	7	9
-1	159	9	1
-1	357	2	1
DDW
235	275
33	39
60	82
42	48
222	332
21	29
27	29
138	152
24	26
241	271
188	230
91	95
63	95
130	188
293	421
